tutorial-chap03-example1-movingaveragesimple/RunRules/DFE/maxfiles/MovingAverageSimple_MAX3424A_DFE/scratch/MovingAverageSimpleKernel_scheduler_1_C.log
Reading model section from scheduler.mod...
90 lines were read
Reading data section from MovingAverageSimpleKernel_scheduler_1_C.dat...
113 lines were read
Generating schedulingEquation...
Generating bufferingEquation...
Generating afterFlushNode...
Generating forcePairConstraints...
Generating autoVarLatencyUserMin...
Generating autoVarLatencyUserMax...
Generating fifos...
Model has been successfully generated
ipp_basic_tech:  1 row(s) and 1 column(s) removed
ipp_reduce_bnds: 1 pass(es) made, 0 bound(s) reduced
ipp_basic_tech:  0 row(s) and 0 column(s) removed
ipp_reduce_coef: 1 pass(es) made, 0 coefficient(s) reduced
lpx_intopt: presolved MIP has 25 rows, 19 columns, 61 non-zeros
lpx_intopt: 19 integer columns, none of which are binary
lpx_adv_basis: size of triangular part = 25
Solving LP relaxation...
      0:   objval =  -1.665000000e+03   infeas =   1.000000000e+00 (0)
     20:   objval =   8.160000000e+02   infeas =   0.000000000e+00 (0)
*    20:   objval =   8.160000000e+02   infeas =   0.000000000e+00 (0)
*    23:   objval =   5.440000000e+02   infeas =   0.000000000e+00 (0)
OPTIMAL SOLUTION FOUND
Integer optimization begins...
+    23: mip =     not found yet >=              -inf        (1; 0)
+    23: >>>>>   5.440000000e+02 >=   5.440000000e+02   0.0% (1; 0)
+    23: mip =   5.440000000e+02 >=     tree is empty   0.0% (0; 1)
INTEGER OPTIMAL SOLUTION FOUND
Time used:   0.0 secs
Memory used: 0.2 Mb (225184 bytes)
Model has been successfully processed
